34 34
21
3 3 28 31
3 4 31 30
3 5 31 25
3 6 28 25
3 7 31 18
3 8 31 10
3 9 19 25
3 10 31 0
3 11 28 14
3 12 22 22
3 13 25 21
3 14 28 0
3 21 25 0
3 22 22 0
3 25 19 0
3 34 16 0
4 4 12 30
4 5 12 25
4 11 12 14
4 14 12 0
12 34 0 0
